Route #1: 1 37 22 13 33 11 6 54 41 1
Route #2: 1 9 30 19 49 51 55 14 28 1
Route #3: 1 36 10 48 17 40 50 2 1
Route #4: 1 26 42 29 20 23 31 1
Route #5: 1 38 4 18 35 34 15 5 1
Route #6: 1 43 32 27 47 21 8 1
Route #7: 1 16 12 3 52 39 1
Route #8: 1 46 44 7 1
Route #9: 1 24 53 25 45 1
cost 1276.0148089580116
